10J3M/DAT/10J3MNTA-3.dat
10 3
19.7252 389.0835
22.8589 522.5293
19.7231 389.0007
26.6214 708.6989
26.3778 695.7883
18.9866 360.491
22.0615 486.7098
24.045 578.162
22.524 507.3306
17.4189 303.4181
1235.303