10J3M/SOL/10J3MNTA-3.sol
solution status: optimal solution found
objective value:                     57.8308303635043
x#1#1                               0.654048658738307 	(obj:0)
x#1#2                               0.345951341261693 	(obj:0)
x#2#1                              0.0461018651328948 	(obj:0)
x#2#3                               0.530515270918627 	(obj:0)
x#4#2                               0.167272513962187 	(obj:0)
x#4#3                               0.832727486037813 	(obj:0)
x#5#1                                               1 	(obj:0)
x#6#2                               0.353940308858488 	(obj:0)
x#6#3                               0.646059691141512 	(obj:0)
x#7#1                                               1 	(obj:0)
x#8#2                                               1 	(obj:0)
x#9#3                                               1 	(obj:0)
x#10#2                                              1 	(obj:0)
z                                    57.8308303635043 	(obj:1)
